NAME 
ROWS
 N  OBJ
 L  R0      
 L  R1      
 L  R2      
 E  R3      
 E  R4      
 E  R5      
 E  R6      
 E  R7      
COLUMNS
    MARKER    'MARKER'                 'INTORG'
    I0(4)     OBJ       146
    I0(4)     R0        127
    I0(4)     R1        13
    I0(4)     R2        -53
    I0(4)     R7        1
    I1(5)     OBJ       121
    I1(5)     R0        133
    I1(5)     R1        97
    I1(5)     R2        -59
    I1(5)     R4        9
    I1(5)     R7        1
    MARKER    'MARKER'                 'INTEND'
    C2(6)     OBJ       7
    C2(6)     R0        3
    C2(6)     R1        -8
    C2(6)     R2        -4
    C2(6)     R4        13
    C2(6)     R5        1
    C2(6)     R6        14
    C3(6)     OBJ       4
    C3(6)     R0        7
    C3(6)     R2        -2
    C3(6)     R3        12
    C3(6)     R4        10
    C3(6)     R5        17
    C3(6)     R6        18
    C4(5)     OBJ       -2
    C4(5)     R0        7
    C4(5)     R1        8
    C4(5)     R2        5
    C4(5)     R5        14
    C4(5)     R6        4
    C5(1)     R3        1
    C6(1)     R4        1
    C7(1)     R5        1
    C8(1)     R6        1
    C9(1)     R7        1
RHS
    RHS1      R0        2.9000000000000004e+01
    RHS1      R1        3.3142857142857146e+01
    RHS1      R2        2.0714285714285715e+01
    RHS1      R3        88
    RHS1      R4        83
    RHS1      R5        58
    RHS1      R6        56
BOUNDS
 UP BND1      I0(4)     1
 UP BND1      I1(5)     1
ENDATA
